
Gurobi 9.1.2 (win64) logging started Tue Jun  1 23:44:39 2021

Academic license - for non-commercial use only - expires 2021-07-30
Gurobi Optimizer version 9.1.2 build v9.1.2rc0 (win64)
Thread count: 4 physical cores, 8 logical processors, using up to 8 threads
Optimize a model with 3 rows, 2 columns and 6 nonzeros
Model fingerprint: 0xdfb036b6
Variable types: 1 continuous, 1 integer (0 binary)
Coefficient statistics:
  Matrix range     [1e+00, 4e+00]
  Objective range  [1e+00, 8e+00]
  Bounds range     [0e+00, 0e+00]
  RHS range        [1e+01, 3e+01]
Presolve time: 0.00s
Presolved: 3 rows, 2 columns, 6 nonzeros
Variable types: 0 continuous, 2 integer (0 binary)
Found heuristic solution: objective 65.0000000

Root relaxation: objective 5.900000e+01, 3 iterations, 0.00 seconds

    Nodes    |    Current Node    |     Objective Bounds      |     Work
 Expl Unexpl |  Obj  Depth IntInf | Incumbent    BestBd   Gap | It/Node Time

*    0     0               0      59.0000000   59.00000  0.00%     -    0s

Explored 0 nodes (3 simplex iterations) in 0.03 seconds
Thread count was 8 (of 8 available processors)

Solution count 2: 59 65 

Optimal solution found (tolerance 1.00e-04)
Best objective 5.900000000000e+01, best bound 5.900000000000e+01, gap 0.0000%
